NAME : expansion
TYPE : TSP
DIMENSION : 50
EDGE_WEIGHT_TYPE : EUC_2D
NODE_COORD_SECTION
1 821465 85519
2 548323 702645
3 216383 988478
4 342993 926411
5 865285 586786
6 932210 132942
7 514099 186860
8 970740 741763
9 977288 688516
10 493879 305890
11 737090 556410
12 963380 562226
13 804838 108336
14 515900 4521
15 633842 837507
16 777453 596870
17 422135 202461
18 734683 658982
19 304157 44833
20 892712 709487
21 75883 747136
22 916830 647335
23 193586 920186
24 469215 246097
25 123765 308459
26 935731 741389
27 870873 607745
28 392047 210339
29 621640 169239
30 800073 585087
31 949025 489574
32 513876 209314
33 986206 710608
34 139632 212176
35 461140 227661
36 445246 268497
37 228917 46393
38 973192 419628
39 989757 473973
40 782679 452009
41 716434 535239
42 981936 741974
43 661893 161449
44 722932 508579
45 513957 233708
46 397802 247257
47 349004 171070
48 827468 508307
49 965202 684900
50 564197 80661
EOF
